n = 15
Q1 = [0 0 0 0 0 0 0 41 0 48 0 12 0 36 17; 0 0 0 0 0 0 0 0 0 42 0 47 13 0 14; 0 0 0 11 22 0 0 46 12 35 0 6 0 29 0; 0 0 0 0 28 40 0 0 42 0 6 29 0 0 0; 0 0 0 0 0 0 24 12 50 32 17 0 45 0 0; 0 0 0 0 0 0 43 44 0 0 41 31 0 23 11; 0 0 0 0 0 0 0 16 0 0 0 42 32 0 0; 0 0 0 0 0 0 0 0 25 0 0 0 0 0 0; 0 0 0 0 0 0 0 0 0 0 0 7 45 33 24; 0 0 0 0 0 0 0 0 0 0 9 0 33 0 16; 0 0 0 0 0 0 0 0 0 0 0 17 40 6 0; 0 0 0 0 0 0 0 0 0 0 0 0 0 37 0; 0 0 0 0 0 0 0 0 0 0 0 0 0 0 36; 0 0 0 0 0 0 0 0 0 0 0 0 0 0 41; 0 0 0 0 0 0 0 0 0 0 0 0 0 0 0]
Q2 = [0.0 0.0 0.0 0.0 0.0 0.0 0.0 2.0 0.0 2.0 0.0 42.0 0.0 10.0 37.0; 0.0 0.0 0.0 0.0 0.0 0.0 0.0 0.0 0.0 2.0 0.0 1.0 49.0 0.0 47.0; 0.0 0.0 0.0 41.0 49.0 0.0 0.0 2.0 39.0 0.0 0.0 45.0 0.0 14.0 0.0; 0.0 0.0 0.0 0.0 6.0 3.0 0.0 0.0 6.0 0.0 46.0 21.0 0.0 0.0 0.0; 0.0 0.0 0.0 0.0 0.0 0.0 27.0 45.0 0.0 11.0 48.0 0.0 4.0 0.0 0.0; 0.0 0.0 0.0 0.0 0.0 0.0 6.0 2.0 0.0 0.0 8.0 11.0 0.0 28.0 41.0; 0.0 0.0 0.0 0.0 0.0 0.0 0.0 50.0 0.0 0.0 0.0 2.0 6.0 0.0 0.0; 0.0 0.0 0.0 0.0 0.0 0.0 0.0 0.0 14.0 0.0 0.0 0.0 0.0 0.0 0.0; 0.0 0.0 0.0 0.0 0.0 0.0 0.0 0.0 0.0 0.0 0.0 50.0 2.0 11.0 29.0; 0.0 0.0 0.0 0.0 0.0 0.0 0.0 0.0 0.0 0.0 45.0 0.0 7.0 0.0 41.0; 0.0 0.0 0.0 0.0 0.0 0.0 0.0 0.0 0.0 0.0 0.0 43.0 1.0 44.0 0.0; 0.0 0.0 0.0 0.0 0.0 0.0 0.0 0.0 0.0 0.0 0.0 0.0 0.0 12.0 0.0; 0.0 0.0 0.0 0.0 0.0 0.0 0.0 0.0 0.0 0.0 0.0 0.0 0.0 0.0 8.0; 0.0 0.0 0.0 0.0 0.0 0.0 0.0 0.0 0.0 0.0 0.0 0.0 0.0 0.0 1.0; 0.0 0.0 0.0 0.0 0.0 0.0 0.0 0.0 0.0 0.0 0.0 0.0 0.0 0.0 0.0]
Q3 = [0 71 71 71 71 71 71 4 71 5 71 5 71 13 0; 0 0 71 71 71 71 71 71 71 2 71 18 6 71 8; 0 0 0 10 0 71 71 19 17 47 71 0 71 18 71; 0 0 0 0 40 26 71 71 15 71 3 14 71 71 71; 0 0 0 0 0 71 4 14 5 20 3 71 4 71 71; 0 0 0 0 0 0 18 12 71 71 17 11 71 8 17; 0 0 0 0 0 0 0 1 71 71 71 13 12 71 71; 0 0 0 0 0 0 0 0 25 71 71 71 71 71 71; 0 0 0 0 0 0 0 0 0 71 71 3 15 2 12; 0 0 0 0 0 0 0 0 0 0 11 71 30 71 0; 0 0 0 0 0 0 0 0 0 0 0 4 17 1 71; 0 0 0 0 0 0 0 0 0 0 0 0 71 5 71; 0 0 0 0 0 0 0 0 0 0 0 0 0 71 5; 0 0 0 0 0 0 0 0 0 0 0 0 0 0 0; 0 0 0 0 0 0 0 0 0 0 0 0 0 0 0]
